c @top --> 24
c p9 --> 20
c p0@v0 --> 21
c p5 --> 18
c p6@v4 --> 17
c p0@v2 --> 23
c p6@v2 --> 15
c p6@v1 --> 14
c p8 --> 1
c p0@v1 --> 22
c p6@v3 --> 16
c p7 --> 2
c p1 --> 19
c p3@v0 --> 4
c p2@v5 --> 12
c p3@v1 --> 5
c p3@v2 --> 6
c p2@v0 --> 7
c p2@v1 --> 8
c p4 --> 3
c p2@v2 --> 9
c p6@v0 --> 13
c p2@v3 --> 10
c p2@v4 --> 11
p cnf 24 57
-9 -6 -3 0
-18 -21 0
-11 -5 -3 0
-6 3 -12 0
-9 -4 3 0
-11 -4 -3 0
-9 -5 3 0
-11 -6 -3 0
-6 3 -8 0
-7 -5 3 0
-7 -6 3 0
-6 -3 -10 0
-19 -23 0
-4 3 -10 0
-4 3 -12 0
-5 3 -8 0
-4 -7 3 0
-4 3 -8 0
-5 3 -10 0
-5 3 -12 0
-22 -19 0
4 5 6 0
-4 -5 0
-4 -6 0
-5 -6 0
7 8 9 10 11 12 0
-7 -8 0
-7 -9 0
-7 -10 0
-7 -11 0
-7 -12 0
-8 -9 0
-8 -10 0
-8 -11 0
-8 -12 0
-9 -10 0
-9 -11 0
-9 -12 0
-10 -11 0
-10 -12 0
-11 -12 0
13 14 15 16 17 0
-13 -14 0
-13 -15 0
-13 -16 0
-13 -17 0
-14 -15 0
-14 -16 0
-14 -17 0
-15 -16 0
-15 -17 0
-16 -17 0
21 22 23 0
-21 -22 0
-21 -23 0
-22 -23 0
24 -24 0
